letting n =  10
letting blocks =  [[1, 3], [1, 8], [1, 9], [2, 2], [2, 8], [2, 10], [3, 2], [3, 3], [3, 6], [3, 8], [3, 9], [4, 4], [4, 7], [5, 1], [5, 8], [5, 9], [6, 6], [6, 9], [7, 3], [10, 2], [10, 3], [10, 5]]
